p wcnf 171 342 343 
1 -142 -112 0 
1 130 98 0 
1 15 -66 0 
1 -70 -118 0 
1 168 -64 0 
1 -43 -92 0 
1 115 -43 0 
1 -139 48 0 
1 141 -64 0 
1 -59 -137 0 
1 -156 155 0 
1 -135 59 0 
1 -14 144 0 
1 95 13 0 
1 25 -165 0 
1 -2 90 0 
1 -82 -75 0 
1 -114 -63 0 
1 139 -65 0 
1 10 49 0 
1 73 -18 0 
1 -73 43 0 
1 65 -103 0 
1 131 49 0 
1 -69 150 0 
1 118 5 0 
1 -82 64 0 
1 -12 -109 0 
1 -36 -86 0 
1 140 -129 0 
1 18 98 0 
1 56 -7 0 
1 56 -13 0 
1 81 55 0 
1 -68 28 0 
1 1 57 0 
1 -147 -116 0 
1 -29 13 0 
1 -111 -102 0 
1 54 52 0 
1 -114 2 0 
1 -98 166 0 
1 166 100 0 
1 166 90 0 
1 -2 168 0 
1 -22 -20 0 
1 -41 163 0 
1 -105 -31 0 
1 56 66 0 
1 27 -123 0 
1 125 115 0 
1 -126 20 0 
1 38 -53 0 
1 65 37 0 
1 -142 -111 0 
1 -41 -62 0 
1 -17 -5 0 
1 132 -95 0 
1 -34 83 0 
1 119 -57 0 
1 -101 138 0 
1 152 76 0 
1 -3 66 0 
1 66 20 0 
1 -85 11 0 
1 -51 96 0 
1 -79 120 0 
1 20 -138 0 
1 128 -99 0 
1 -81 110 0 
1 62 -137 0 
1 -17 144 0 
1 152 95 0 
1 137 74 0 
1 -164 65 0 
1 4 31 0 
1 17 89 0 
1 42 -102 0 
1 -21 -100 0 
1 165 -21 0 
1 -5 40 0 
1 68 -106 0 
1 112 12 0 
1 147 49 0 
1 5 -37 0 
1 -166 -4 0 
1 -162 18 0 
1 78 -155 0 
1 11 -165 0 
1 140 66 0 
1 123 57 0 
1 -157 -98 0 
1 -70 -137 0 
1 -53 -65 0 
1 -51 -85 0 
1 -21 39 0 
1 22 -169 0 
1 52 -115 0 
1 -137 -145 0 
1 107 -45 0 
1 12 -42 0 
1 96 -8 0 
1 -146 165 0 
1 71 156 0 
1 -106 13 0 
1 -101 115 0 
1 8 -40 0 
1 61 -169 0 
1 -117 -42 0 
1 128 -55 0 
1 -75 -81 0 
1 54 59 0 
1 135 -102 0 
1 6 118 0 
1 115 16 0 
1 73 109 0 
1 -38 4 0 
1 -100 -41 0 
1 -139 -118 0 
1 70 -127 0 
1 -33 -39 0 
1 -46 -22 0 
1 39 -48 0 
1 -23 125 0 
1 -10 140 0 
1 -144 -89 0 
1 154 53 0 
1 136 35 0 
1 136 -64 0 
1 -95 -51 0 
1 45 12 0 
1 30 -13 0 
1 -37 107 0 
1 -51 -70 0 
1 61 125 0 
1 -161 170 0 
1 133 -83 0 
1 -49 19 0 
1 -91 -93 0 
1 144 24 0 
1 -105 -1 0 
1 -41 -12 0 
1 -125 22 0 
1 -22 -46 0 
1 -92 -162 0 
1 144 -38 0 
1 -87 -10 0 
1 43 -67 0 
1 -21 -43 0 
1 100 78 0 
1 14 6 0 
1 51 132 0 
1 -130 63 0 
1 149 2 0 
1 58 -135 0 
1 6 -163 0 
1 -81 -46 0 
1 145 59 0 
1 115 -45 0 
1 21 116 0 
1 -122 -55 0 
1 -93 -167 0 
1 -127 -139 0 
1 136 -104 0 
1 113 -62 0 
1 111 -29 0 
1 83 -86 0 
1 109 -64 0 
1 -70 76 0 
1 -162 -98 0 
1 -51 97 0 
1 -30 29 0 
1 -23 -29 0 
1 -41 123 0 
1 -136 -105 0 
1 79 13 0 
1 -86 91 0 
1 62 -57 0 
1 -23 -144 0 
1 -33 90 0 
1 42 -58 0 
1 168 11 0 
1 24 74 0 
1 -97 -108 0 
1 58 -75 0 
1 171 99 0 
1 148 -42 0 
1 76 -168 0 
1 -69 19 0 
1 -18 95 0 
1 -80 -128 0 
1 -10 50 0 
1 47 -7 0 
1 -104 78 0 
1 -45 -119 0 
1 -77 -44 0 
1 24 -29 0 
1 -101 -42 0 
1 47 154 0 
1 -136 6 0 
1 -13 103 0 
1 159 -100 0 
1 -1 -147 0 
1 110 -15 0 
1 134 -54 0 
1 63 -44 0 
1 -105 115 0 
1 -116 97 0 
1 108 171 0 
1 161 41 0 
1 -110 -83 0 
1 -1 -83 0 
1 -28 38 0 
1 153 -68 0 
1 118 -99 0 
1 39 -28 0 
1 -85 20 0 
1 -51 19 0 
1 -89 32 0 
1 109 -150 0 
1 85 -58 0 
1 26 113 0 
1 -41 -107 0 
1 34 -155 0 
1 -161 -122 0 
1 72 130 0 
1 51 28 0 
1 167 -115 0 
1 53 34 0 
1 157 -79 0 
1 -90 134 0 
1 98 48 0 
1 87 -160 0 
1 -59 -14 0 
1 -120 128 0 
1 -90 69 0 
1 39 -112 0 
1 -155 -144 0 
1 -56 -61 0 
1 -51 -37 0 
1 -66 170 0 
1 136 111 0 
1 131 13 0 
1 -164 2 0 
1 -150 -111 0 
1 65 85 0 
1 137 59 0 
1 31 19 0 
1 138 -146 0 
1 106 -19 0 
1 -79 -71 0 
1 78 3 0 
1 139 45 0 
1 123 -165 0 
1 148 -99 0 
1 -62 -168 0 
1 -23 27 0 
1 15 72 0 
1 99 87 0 
1 -33 127 0 
1 142 -144 0 
1 130 153 0 
1 94 117 0 
1 124 -58 0 
1 2 138 0 
1 131 145 0 
1 126 -87 0 
1 -91 -26 0 
1 -23 39 0 
1 115 -144 0 
1 54 -44 0 
1 22 -113 0 
1 65 -73 0 
1 89 -149 0 
1 54 152 0 
1 29 159 0 
1 -72 9 0 
1 -132 -95 0 
1 -134 -150 0 
1 77 -127 0 
1 -132 141 0 
1 117 119 0 
1 -56 -19 0 
1 104 37 0 
1 125 170 0 
1 -16 63 0 
1 -130 -43 0 
1 125 -133 0 
1 -59 69 0 
1 -24 -74 0 
1 -152 -144 0 
1 39 168 0 
1 -157 -64 0 
1 55 142 0 
1 -18 147 0 
1 60 -56 0 
1 18 14 0 
1 -79 -128 0 
1 -119 55 0 
1 -42 -154 0 
1 96 -128 0 
1 51 78 0 
1 112 -106 0 
1 57 115 0 
1 -81 118 0 
1 -56 -98 0 
1 -48 -50 0 
1 -125 71 0 
1 -89 75 0 
1 -57 -167 0 
1 -17 46 0 
1 131 159 0 
1 107 -166 0 
1 82 146 0 
1 -147 -17 0 
1 42 -105 0 
1 104 110 0 
1 154 -14 0 
1 18 -17 0 
1 -136 -85 0 
1 159 -87 0 
1 161 -25 0 
1 -4 63 0 
1 -64 119 0 
1 152 -31 0 
1 111 72 0 
1 -75 -127 0 
1 77 -24 0 
1 161 9 0 
1 -119 -159 0 
1 -43 -47 0 
1 -56 134 0 
1 -100 128 0 
1 -28 159 0 
1 114 -56 0 
1 -166 159 0 
1 -122 8 0 
1 -16 -146 0 
1 8 -125 0 
1 90 29 0 
1 101 158 0 
1 53 58 0 
